data/lp_files/pEFS/88_0.lp
\ Model foo
\ LP format - for model browsing. Use MPS format to capture full model detail.
Minimize
  z
Subject To
 allocateEach[1]: x[1,1] + x[2,1] + x[3,1] + x[4,1] + x[5,1] = 1
 allocateEach[2]: x[1,2] + x[2,2] + x[3,2] + x[4,2] + x[5,2] = 1
 allocateEach[3]: x[1,3] + x[2,3] + x[3,3] + x[4,3] + x[5,3] = 1
 allocateEach[4]: x[1,4] + x[2,4] + x[3,4] + x[4,4] + x[5,4] = 1
 allocateEach[5]: x[1,5] + x[2,5] + x[3,5] + x[4,5] + x[5,5] = 1
 allocateEach[6]: x[1,6] + x[2,6] + x[3,6] + x[4,6] + x[5,6] = 1
 allocateEach[7]: x[1,7] + x[2,7] + x[3,7] + x[4,7] + x[5,7] = 1
 allocateEach[8]: x[1,8] + x[2,8] + x[3,8] + x[4,8] + x[5,8] = 1
 allocateAllCash: cashProportion[1] + cashProportion[2] + cashProportion[3]
   + cashProportion[4] + cashProportion[5] = 1
 findWorstP[1,2]: z + 0.0103982530934803 cashProportion[1]
   - 0.0103982530934803 cashProportion[2] + 0.1152750337943226 x[1,1]
   + 0.0449828428823958 x[1,2] + 0.1525423728813559 x[1,3]
   + 0.1742747218467298 x[1,4] + 0.1775813663304565 x[1,5]
   + 0.029531038785484 x[1,6] + 0.1942809607985859 x[1,7]
   + 0.1011334095871894 x[1,8] - 0.1152750337943226 x[2,1]
   - 0.0449828428823958 x[2,2] - 0.1525423728813559 x[2,3]
   - 0.1742747218467298 x[2,4] - 0.1775813663304565 x[2,5]
   - 0.029531038785484 x[2,6] - 0.1942809607985859 x[2,7]
   - 0.1011334095871894 x[2,8] >= 0
 findWorstP[1,3]: z + 0.0103982530934803 cashProportion[1]
   - 0.0103982530934803 cashProportion[3] + 0.1152750337943226 x[1,1]
   + 0.0449828428823958 x[1,2] + 0.1525423728813559 x[1,3]
   + 0.1742747218467298 x[1,4] + 0.1775813663304565 x[1,5]
   + 0.029531038785484 x[1,6] + 0.1942809607985859 x[1,7]
   + 0.1011334095871894 x[1,8] - 0.1152750337943226 x[3,1]
   - 0.0449828428823958 x[3,2] - 0.1525423728813559 x[3,3]
   - 0.1742747218467298 x[3,4] - 0.1775813663304565 x[3,5]
   - 0.029531038785484 x[3,6] - 0.1942809607985859 x[3,7]
   - 0.1011334095871894 x[3,8] >= 0
 findWorstP[1,4]: z + 0.0103982530934803 cashProportion[1]
   - 0.0103982530934803 cashProportion[4] + 0.1152750337943226 x[1,1]
   + 0.0449828428823958 x[1,2] + 0.1525423728813559 x[1,3]
   + 0.1742747218467298 x[1,4] + 0.1775813663304565 x[1,5]
   + 0.029531038785484 x[1,6] + 0.1942809607985859 x[1,7]
   + 0.1011334095871894 x[1,8] - 0.1152750337943226 x[4,1]
   - 0.0449828428823958 x[4,2] - 0.1525423728813559 x[4,3]
   - 0.1742747218467298 x[4,4] - 0.1775813663304565 x[4,5]
   - 0.029531038785484 x[4,6] - 0.1942809607985859 x[4,7]
   - 0.1011334095871894 x[4,8] >= 0
 findWorstP[1,5]: z + 0.0103982530934803 cashProportion[1]
   - 0.0103982530934803 cashProportion[5] + 0.1152750337943226 x[1,1]
   + 0.0449828428823958 x[1,2] + 0.1525423728813559 x[1,3]
   + 0.1742747218467298 x[1,4] + 0.1775813663304565 x[1,5]
   + 0.029531038785484 x[1,6] + 0.1942809607985859 x[1,7]
   + 0.1011334095871894 x[1,8] - 0.1152750337943226 x[5,1]
   - 0.0449828428823958 x[5,2] - 0.1525423728813559 x[5,3]
   - 0.1742747218467298 x[5,4] - 0.1775813663304565 x[5,5]
   - 0.029531038785484 x[5,6] - 0.1942809607985859 x[5,7]
   - 0.1011334095871894 x[5,8] >= 0
 findWorstP[2,1]: z - 0.0113388969521045 cashProportion[1]
   + 0.0113388969521045 cashProportion[2] - 0.1498775399129173 x[1,1]
   - 0.0866064949201742 x[1,2] - 0.1446616473149492 x[1,3]
   - 0.0131077648766328 x[1,4] - 0.0127222423802612 x[1,5]
   - 0.2168904208998549 x[1,6] - 0.2264150943396226 x[1,7]
   - 0.1383798984034833 x[1,8] + 0.1498775399129173 x[2,1]
   + 0.0866064949201742 x[2,2] + 0.1446616473149492 x[2,3]
   + 0.0131077648766328 x[2,4] + 0.0127222423802612 x[2,5]
   + 0.2168904208998549 x[2,6] + 0.2264150943396226 x[2,7]
   + 0.1383798984034833 x[2,8] >= 0
 findWorstP[2,3]: z + 0.0113388969521045 cashProportion[2]
   - 0.0113388969521045 cashProportion[3] + 0.1498775399129173 x[2,1]
   + 0.0866064949201742 x[2,2] + 0.1446616473149492 x[2,3]
   + 0.0131077648766328 x[2,4] + 0.0127222423802612 x[2,5]
   + 0.2168904208998549 x[2,6] + 0.2264150943396226 x[2,7]
   + 0.1383798984034833 x[2,8] - 0.1498775399129173 x[3,1]
   - 0.0866064949201742 x[3,2] - 0.1446616473149492 x[3,3]
   - 0.0131077648766328 x[3,4] - 0.0127222423802612 x[3,5]
   - 0.2168904208998549 x[3,6] - 0.2264150943396226 x[3,7]
   - 0.1383798984034833 x[3,8] >= 0
 findWorstP[2,4]: z + 0.0113388969521045 cashProportion[2]
   - 0.0113388969521045 cashProportion[4] + 0.1498775399129173 x[2,1]
   + 0.0866064949201742 x[2,2] + 0.1446616473149492 x[2,3]
   + 0.0131077648766328 x[2,4] + 0.0127222423802612 x[2,5]
   + 0.2168904208998549 x[2,6] + 0.2264150943396226 x[2,7]
   + 0.1383798984034833 x[2,8] - 0.1498775399129173 x[4,1]
   - 0.0866064949201742 x[4,2] - 0.1446616473149492 x[4,3]
   - 0.0131077648766328 x[4,4] - 0.0127222423802612 x[4,5]
   - 0.2168904208998549 x[4,6] - 0.2264150943396226 x[4,7]
   - 0.1383798984034833 x[4,8] >= 0
 findWorstP[2,5]: z + 0.0113388969521045 cashProportion[2]
   - 0.0113388969521045 cashProportion[5] + 0.1498775399129173 x[2,1]
   + 0.0866064949201742 x[2,2] + 0.1446616473149492 x[2,3]
   + 0.0131077648766328 x[2,4] + 0.0127222423802612 x[2,5]
   + 0.2168904208998549 x[2,6] + 0.2264150943396226 x[2,7]
   + 0.1383798984034833 x[2,8] - 0.1498775399129173 x[5,1]
   - 0.0866064949201742 x[5,2] - 0.1446616473149492 x[5,3]
   - 0.0131077648766328 x[5,4] - 0.0127222423802612 x[5,5]
   - 0.2168904208998549 x[5,6] - 0.2264150943396226 x[5,7]
   - 0.1383798984034833 x[5,8] >= 0
 findWorstP[3,1]: z - 0.0136686714051394 cashProportion[1]
   + 0.0136686714051394 cashProportion[3] - 0.1504373974849645 x[1,1]
   - 0.1211864406779661 x[1,2] - 0.2039639147074904 x[1,3]
   - 0.1864406779661017 x[1,4] - 0.082449425915801 x[1,5]
   - 0.1007927829414981 x[1,6] - 0.040978676872608 x[1,7]
   - 0.1000820120284308 x[1,8] + 0.1504373974849645 x[3,1]
   + 0.1211864406779661 x[3,2] + 0.2039639147074904 x[3,3]
   + 0.1864406779661017 x[3,4] + 0.082449425915801 x[3,5]
   + 0.1007927829414981 x[3,6] + 0.040978676872608 x[3,7]
   + 0.1000820120284308 x[3,8] >= 0
 findWorstP[3,2]: z - 0.0136686714051394 cashProportion[2]
   + 0.0136686714051394 cashProportion[3] - 0.1504373974849645 x[2,1]
   - 0.1211864406779661 x[2,2] - 0.2039639147074904 x[2,3]
   - 0.1864406779661017 x[2,4] - 0.082449425915801 x[2,5]
   - 0.1007927829414981 x[2,6] - 0.040978676872608 x[2,7]
   - 0.1000820120284308 x[2,8] + 0.1504373974849645 x[3,1]
   + 0.1211864406779661 x[3,2] + 0.2039639147074904 x[3,3]
   + 0.1864406779661017 x[3,4] + 0.082449425915801 x[3,5]
   + 0.1007927829414981 x[3,6] + 0.040978676872608 x[3,7]
   + 0.1000820120284308 x[3,8] >= 0
 findWorstP[3,4]: z + 0.0136686714051394 cashProportion[3]
   - 0.0136686714051394 cashProportion[4] + 0.1504373974849645 x[3,1]
   + 0.1211864406779661 x[3,2] + 0.2039639147074904 x[3,3]
   + 0.1864406779661017 x[3,4] + 0.082449425915801 x[3,5]
   + 0.1007927829414981 x[3,6] + 0.040978676872608 x[3,7]
   + 0.1000820120284308 x[3,8] - 0.1504373974849645 x[4,1]
   - 0.1211864406779661 x[4,2] - 0.2039639147074904 x[4,3]
   - 0.1864406779661017 x[4,4] - 0.082449425915801 x[4,5]
   - 0.1007927829414981 x[4,6] - 0.040978676872608 x[4,7]
   - 0.1000820120284308 x[4,8] >= 0
 findWorstP[3,5]: z + 0.0136686714051394 cashProportion[3]
   - 0.0136686714051394 cashProportion[5] + 0.1504373974849645 x[3,1]
   + 0.1211864406779661 x[3,2] + 0.2039639147074904 x[3,3]
   + 0.1864406779661017 x[3,4] + 0.082449425915801 x[3,5]
   + 0.1007927829414981 x[3,6] + 0.040978676872608 x[3,7]
   + 0.1000820120284308 x[3,8] - 0.1504373974849645 x[5,1]
   - 0.1211864406779661 x[5,2] - 0.2039639147074904 x[5,3]
   - 0.1864406779661017 x[5,4] - 0.082449425915801 x[5,5]
   - 0.1007927829414981 x[5,6] - 0.040978676872608 x[5,7]
   - 0.1000820120284308 x[5,8] >= 0
 findWorstP[4,1]: z - 0.0134767256947252 cashProportion[1]
   + 0.0134767256947252 cashProportion[4] - 0.0713996927306542 x[1,1]
   - 0.0261718012991564 x[1,2] - 0.1116411956551037 x[1,3]
   - 0.0813724697447508 x[1,4] - 0.2335516562895879 x[1,5]
   - 0.1135009838009757 x[1,6] - 0.1186490930163608 x[1,7]
   - 0.2302363817686855 x[1,8] + 0.0713996927306542 x[4,1]
   + 0.0261718012991564 x[4,2] + 0.1116411956551037 x[4,3]
   + 0.0813724697447508 x[4,4] + 0.2335516562895879 x[4,5]
   + 0.1135009838009757 x[4,6] + 0.1186490930163608 x[4,7]
   + 0.2302363817686855 x[4,8] >= 0
 findWorstP[4,2]: z - 0.0134767256947252 cashProportion[2]
   + 0.0134767256947252 cashProportion[4] - 0.0713996927306542 x[2,1]
   - 0.0261718012991564 x[2,2] - 0.1116411956551037 x[2,3]
   - 0.0813724697447508 x[2,4] - 0.2335516562895879 x[2,5]
   - 0.1135009838009757 x[2,6] - 0.1186490930163608 x[2,7]
   - 0.2302363817686855 x[2,8] + 0.0713996927306542 x[4,1]
   + 0.0261718012991564 x[4,2] + 0.1116411956551037 x[4,3]
   + 0.0813724697447508 x[4,4] + 0.2335516562895879 x[4,5]
   + 0.1135009838009757 x[4,6] + 0.1186490930163608 x[4,7]
   + 0.2302363817686855 x[4,8] >= 0
 findWorstP[4,3]: z - 0.0134767256947252 cashProportion[3]
   + 0.0134767256947252 cashProportion[4] - 0.0713996927306542 x[3,1]
   - 0.0261718012991564 x[3,2] - 0.1116411956551037 x[3,3]
   - 0.0813724697447508 x[3,4] - 0.2335516562895879 x[3,5]
   - 0.1135009838009757 x[3,6] - 0.1186490930163608 x[3,7]
   - 0.2302363817686855 x[3,8] + 0.0713996927306542 x[4,1]
   + 0.0261718012991564 x[4,2] + 0.1116411956551037 x[4,3]
   + 0.0813724697447508 x[4,4] + 0.2335516562895879 x[4,5]
   + 0.1135009838009757 x[4,6] + 0.1186490930163608 x[4,7]
   + 0.2302363817686855 x[4,8] >= 0
 findWorstP[4,5]: z + 0.0134767256947252 cashProportion[4]
   - 0.0134767256947252 cashProportion[5] + 0.0713996927306542 x[4,1]
   + 0.0261718012991564 x[4,2] + 0.1116411956551037 x[4,3]
   + 0.0813724697447508 x[4,4] + 0.2335516562895879 x[4,5]
   + 0.1135009838009757 x[4,6] + 0.1186490930163608 x[4,7]
   + 0.2302363817686855 x[4,8] - 0.0713996927306542 x[5,1]
   - 0.0261718012991564 x[5,2] - 0.1116411956551037 x[5,3]
   - 0.0813724697447508 x[5,4] - 0.2335516562895879 x[5,5]
   - 0.1135009838009757 x[5,6] - 0.1186490930163608 x[5,7]
   - 0.2302363817686855 x[5,8] >= 0
 findWorstP[5,1]: z - 0.0105647938808714 cashProportion[1]
   + 0.0105647938808714 cashProportion[5] - 0.0932026116170474 x[1,1]
   - 0.1199949288989372 x[1,2] - 0.192300378219621 x[1,3]
   - 0.1237771251082892 x[1,4] - 0.0664314239229193 x[1,5]
   - 0.1739598960424282 x[1,6] - 0.2023369324064488 x[1,7]
   - 0.0174319099034378 x[1,8] + 0.0932026116170474 x[5,1]
   + 0.1199949288989372 x[5,2] + 0.192300378219621 x[5,3]
   + 0.1237771251082892 x[5,4] + 0.0664314239229193 x[5,5]
   + 0.1739598960424282 x[5,6] + 0.2023369324064488 x[5,7]
   + 0.0174319099034378 x[5,8] >= 0
 findWorstP[5,2]: z - 0.0105647938808714 cashProportion[2]
   + 0.0105647938808714 cashProportion[5] - 0.0932026116170474 x[2,1]
   - 0.1199949288989372 x[2,2] - 0.192300378219621 x[2,3]
   - 0.1237771251082892 x[2,4] - 0.0664314239229193 x[2,5]
   - 0.1739598960424282 x[2,6] - 0.2023369324064488 x[2,7]
   - 0.0174319099034378 x[2,8] + 0.0932026116170474 x[5,1]
   + 0.1199949288989372 x[5,2] + 0.192300378219621 x[5,3]
   + 0.1237771251082892 x[5,4] + 0.0664314239229193 x[5,5]
   + 0.1739598960424282 x[5,6] + 0.2023369324064488 x[5,7]
   + 0.0174319099034378 x[5,8] >= 0
 findWorstP[5,3]: z - 0.0105647938808714 cashProportion[3]
   + 0.0105647938808714 cashProportion[5] - 0.0932026116170474 x[3,1]
   - 0.1199949288989372 x[3,2] - 0.192300378219621 x[3,3]
   - 0.1237771251082892 x[3,4] - 0.0664314239229193 x[3,5]
   - 0.1739598960424282 x[3,6] - 0.2023369324064488 x[3,7]
   - 0.0174319099034378 x[3,8] + 0.0932026116170474 x[5,1]
   + 0.1199949288989372 x[5,2] + 0.192300378219621 x[5,3]
   + 0.1237771251082892 x[5,4] + 0.0664314239229193 x[5,5]
   + 0.1739598960424282 x[5,6] + 0.2023369324064488 x[5,7]
   + 0.0174319099034378 x[5,8] >= 0
 findWorstP[5,4]: z - 0.0105647938808714 cashProportion[4]
   + 0.0105647938808714 cashProportion[5] - 0.0932026116170474 x[4,1]
   - 0.1199949288989372 x[4,2] - 0.192300378219621 x[4,3]
   - 0.1237771251082892 x[4,4] - 0.0664314239229193 x[4,5]
   - 0.1739598960424282 x[4,6] - 0.2023369324064488 x[4,7]
   - 0.0174319099034378 x[4,8] + 0.0932026116170474 x[5,1]
   + 0.1199949288989372 x[5,2] + 0.192300378219621 x[5,3]
   + 0.1237771251082892 x[5,4] + 0.0664314239229193 x[5,5]
   + 0.1739598960424282 x[5,6] + 0.2023369324064488 x[5,7]
   + 0.0174319099034378 x[5,8] >= 0
Bounds
 z <= 1
 -infinity <= cashProportion[1] <= 1
 -infinity <= cashProportion[2] <= 1
 -infinity <= cashProportion[3] <= 1
 -infinity <= cashProportion[4] <= 1
 -infinity <= cashProportion[5] <= 1
Binaries
 x[1,1] x[1,2] x[1,3] x[1,4] x[1,5] x[1,6] x[1,7] x[1,8] x[2,1] x[2,2]
 x[2,3] x[2,4] x[2,5] x[2,6] x[2,7] x[2,8] x[3,1] x[3,2] x[3,3] x[3,4]
 x[3,5] x[3,6] x[3,7] x[3,8] x[4,1] x[4,2] x[4,3] x[4,4] x[4,5] x[4,6]
 x[4,7] x[4,8] x[5,1] x[5,2] x[5,3] x[5,4] x[5,5] x[5,6] x[5,7] x[5,8]
End
