data/mps_files/q3/88_0.mps
NAME foo
ROWS
 N  OBJ
 E  allocateEach[1]
 E  allocateEach[2]
 E  allocateEach[3]
 E  allocateEach[4]
 E  allocateEach[5]
 E  allocateEach[6]
 E  allocateEach[7]
 E  allocateEach[8]
 E  allocateAllCash
 G  findWorstP[1,2]
 G  findWorstP[1,3]
 G  findWorstP[1,4]
 G  findWorstP[1,5]
 G  findWorstP[2,1]
 G  findWorstP[2,3]
 G  findWorstP[2,4]
 G  findWorstP[2,5]
 G  findWorstP[3,1]
 G  findWorstP[3,2]
 G  findWorstP[3,4]
 G  findWorstP[3,5]
 G  findWorstP[4,1]
 G  findWorstP[4,2]
 G  findWorstP[4,3]
 G  findWorstP[4,5]
 G  findWorstP[5,1]
 G  findWorstP[5,2]
 G  findWorstP[5,3]
 G  findWorstP[5,4]
COLUMNS
    z         OBJ       1
    z         findWorstP[1,2]  1
    z         findWorstP[1,3]  1
    z         findWorstP[1,4]  1
    z         findWorstP[1,5]  1
    z         findWorstP[2,1]  1
    z         findWorstP[2,3]  1
    z         findWorstP[2,4]  1
    z         findWorstP[2,5]  1
    z         findWorstP[3,1]  1
    z         findWorstP[3,2]  1
    z         findWorstP[3,4]  1
    z         findWorstP[3,5]  1
    z         findWorstP[4,1]  1
    z         findWorstP[4,2]  1
    z         findWorstP[4,3]  1
    z         findWorstP[4,5]  1
    z         findWorstP[5,1]  1
    z         findWorstP[5,2]  1
    z         findWorstP[5,3]  1
    z         findWorstP[5,4]  1
    cashProportion[1]  allocateAllCash  1
    cashProportion[1]  findWorstP[1,2]  1.0398253093480296e-02
    cashProportion[1]  findWorstP[1,3]  1.0398253093480296e-02
    cashProportion[1]  findWorstP[1,4]  1.0398253093480296e-02
    cashProportion[1]  findWorstP[1,5]  1.0398253093480296e-02
    cashProportion[1]  findWorstP[2,1]  -0.0113388969521045
    cashProportion[1]  findWorstP[3,1]  -1.3668671405139422e-02
    cashProportion[1]  findWorstP[4,1]  -1.3476725694725212e-02
    cashProportion[1]  findWorstP[5,1]  -1.0564793880871386e-02
    cashProportion[2]  allocateAllCash  1
    cashProportion[2]  findWorstP[1,2]  -1.0398253093480296e-02
    cashProportion[2]  findWorstP[2,1]  0.0113388969521045
    cashProportion[2]  findWorstP[2,3]  0.0113388969521045
    cashProportion[2]  findWorstP[2,4]  0.0113388969521045
    cashProportion[2]  findWorstP[2,5]  0.0113388969521045
    cashProportion[2]  findWorstP[3,2]  -1.3668671405139422e-02
    cashProportion[2]  findWorstP[4,2]  -1.3476725694725212e-02
    cashProportion[2]  findWorstP[5,2]  -1.0564793880871386e-02
    cashProportion[3]  allocateAllCash  1
    cashProportion[3]  findWorstP[1,3]  -1.0398253093480296e-02
    cashProportion[3]  findWorstP[2,3]  -0.0113388969521045
    cashProportion[3]  findWorstP[3,1]  1.3668671405139422e-02
    cashProportion[3]  findWorstP[3,2]  1.3668671405139422e-02
    cashProportion[3]  findWorstP[3,4]  1.3668671405139422e-02
    cashProportion[3]  findWorstP[3,5]  1.3668671405139422e-02
    cashProportion[3]  findWorstP[4,3]  -1.3476725694725212e-02
    cashProportion[3]  findWorstP[5,3]  -1.0564793880871386e-02
    cashProportion[4]  allocateAllCash  1
    cashProportion[4]  findWorstP[1,4]  -1.0398253093480296e-02
    cashProportion[4]  findWorstP[2,4]  -0.0113388969521045
    cashProportion[4]  findWorstP[3,4]  -1.3668671405139422e-02
    cashProportion[4]  findWorstP[4,1]  1.3476725694725212e-02
    cashProportion[4]  findWorstP[4,2]  1.3476725694725212e-02
    cashProportion[4]  findWorstP[4,3]  1.3476725694725212e-02
    cashProportion[4]  findWorstP[4,5]  1.3476725694725212e-02
    cashProportion[4]  findWorstP[5,4]  -1.0564793880871386e-02
    cashProportion[5]  allocateAllCash  1
    cashProportion[5]  findWorstP[1,5]  -1.0398253093480296e-02
    cashProportion[5]  findWorstP[2,5]  -0.0113388969521045
    cashProportion[5]  findWorstP[3,5]  -1.3668671405139422e-02
    cashProportion[5]  findWorstP[4,5]  -1.3476725694725212e-02
    cashProportion[5]  findWorstP[5,1]  1.0564793880871386e-02
    cashProportion[5]  findWorstP[5,2]  1.0564793880871386e-02
    cashProportion[5]  findWorstP[5,3]  1.0564793880871386e-02
    cashProportion[5]  findWorstP[5,4]  1.0564793880871386e-02
    MARKER    'MARKER'                 'INTORG'
    x[1,1]    allocateEach[1]  1
    x[1,1]    findWorstP[1,2]  1.1527503379432257e-01
    x[1,1]    findWorstP[1,3]  1.1527503379432257e-01
    x[1,1]    findWorstP[1,4]  1.1527503379432257e-01
    x[1,1]    findWorstP[1,5]  1.1527503379432257e-01
    x[1,1]    findWorstP[2,1]  -1.4987753991291727e-01
    x[1,1]    findWorstP[3,1]  -1.5043739748496446e-01
    x[1,1]    findWorstP[4,1]  -7.1399692730654177e-02
    x[1,1]    findWorstP[5,1]  -9.3202611617047362e-02
    x[1,2]    allocateEach[2]  1
    x[1,2]    findWorstP[1,2]  4.4982842882395763e-02
    x[1,2]    findWorstP[1,3]  4.4982842882395763e-02
    x[1,2]    findWorstP[1,4]  4.4982842882395763e-02
    x[1,2]    findWorstP[1,5]  4.4982842882395763e-02
    x[1,2]    findWorstP[2,1]  -8.6606494920174165e-02
    x[1,2]    findWorstP[3,1]  -1.2118644067796612e-01
    x[1,2]    findWorstP[4,1]  -2.6171801299156361e-02
    x[1,2]    findWorstP[5,1]  -1.1999492889893719e-01
    x[1,3]    allocateEach[3]  1
    x[1,3]    findWorstP[1,2]  1.5254237288135594e-01
    x[1,3]    findWorstP[1,3]  1.5254237288135594e-01
    x[1,3]    findWorstP[1,4]  1.5254237288135594e-01
    x[1,3]    findWorstP[1,5]  1.5254237288135594e-01
    x[1,3]    findWorstP[2,1]  -1.4466164731494921e-01
    x[1,3]    findWorstP[3,1]  -2.0396391470749042e-01
    x[1,3]    findWorstP[4,1]  -1.1164119565510365e-01
    x[1,3]    findWorstP[5,1]  -1.9230037821962095e-01
    x[1,4]    allocateEach[4]  1
    x[1,4]    findWorstP[1,2]  1.7427472184672976e-01
    x[1,4]    findWorstP[1,3]  1.7427472184672976e-01
    x[1,4]    findWorstP[1,4]  1.7427472184672976e-01
    x[1,4]    findWorstP[1,5]  1.7427472184672976e-01
    x[1,4]    findWorstP[2,1]  -0.0131077648766328
    x[1,4]    findWorstP[3,1]  -1.8644067796610173e-01
    x[1,4]    findWorstP[4,1]  -8.1372469744750819e-02
    x[1,4]    findWorstP[5,1]  -1.2377712510828916e-01
    x[1,5]    allocateEach[5]  1
    x[1,5]    findWorstP[1,2]  1.7758136633045649e-01
    x[1,5]    findWorstP[1,3]  1.7758136633045649e-01
    x[1,5]    findWorstP[1,4]  1.7758136633045649e-01
    x[1,5]    findWorstP[1,5]  1.7758136633045649e-01
    x[1,5]    findWorstP[2,1]  -1.2722242380261248e-02
    x[1,5]    findWorstP[3,1]  -8.2449425915800983e-02
    x[1,5]    findWorstP[4,1]  -2.3355165628958793e-01
    x[1,5]    findWorstP[5,1]  -6.6431423922919272e-02
    x[1,6]    allocateEach[6]  1
    x[1,6]    findWorstP[1,2]  2.9531038785484038e-02
    x[1,6]    findWorstP[1,3]  2.9531038785484038e-02
    x[1,6]    findWorstP[1,4]  2.9531038785484038e-02
    x[1,6]    findWorstP[1,5]  2.9531038785484038e-02
    x[1,6]    findWorstP[2,1]  -2.1689042089985486e-01
    x[1,6]    findWorstP[3,1]  -1.0079278294149810e-01
    x[1,6]    findWorstP[4,1]  -1.1350098380097572e-01
    x[1,6]    findWorstP[5,1]  -1.7395989604242823e-01
    x[1,7]    allocateEach[7]  1
    x[1,7]    findWorstP[1,2]  1.9428096079858587e-01
    x[1,7]    findWorstP[1,3]  1.9428096079858587e-01
    x[1,7]    findWorstP[1,4]  1.9428096079858587e-01
    x[1,7]    findWorstP[1,5]  1.9428096079858587e-01
    x[1,7]    findWorstP[2,1]  -2.2641509433962262e-01
    x[1,7]    findWorstP[3,1]  -4.0978676872607984e-02
    x[1,7]    findWorstP[4,1]  -1.1864909301636076e-01
    x[1,7]    findWorstP[5,1]  -2.0233693240644879e-01
    x[1,8]    allocateEach[8]  1
    x[1,8]    findWorstP[1,2]  1.0113340958718936e-01
    x[1,8]    findWorstP[1,3]  1.0113340958718936e-01
    x[1,8]    findWorstP[1,4]  1.0113340958718936e-01
    x[1,8]    findWorstP[1,5]  1.0113340958718936e-01
    x[1,8]    findWorstP[2,1]  -1.3837989840348330e-01
    x[1,8]    findWorstP[3,1]  -1.0008201202843084e-01
    x[1,8]    findWorstP[4,1]  -2.3023638176868549e-01
    x[1,8]    findWorstP[5,1]  -1.7431909903437789e-02
    x[2,1]    allocateEach[1]  1
    x[2,1]    findWorstP[1,2]  -1.1527503379432257e-01
    x[2,1]    findWorstP[2,1]  1.4987753991291727e-01
    x[2,1]    findWorstP[2,3]  1.4987753991291727e-01
    x[2,1]    findWorstP[2,4]  1.4987753991291727e-01
    x[2,1]    findWorstP[2,5]  1.4987753991291727e-01
    x[2,1]    findWorstP[3,2]  -1.5043739748496446e-01
    x[2,1]    findWorstP[4,2]  -7.1399692730654177e-02
    x[2,1]    findWorstP[5,2]  -9.3202611617047362e-02
    x[2,2]    allocateEach[2]  1
    x[2,2]    findWorstP[1,2]  -4.4982842882395763e-02
    x[2,2]    findWorstP[2,1]  8.6606494920174165e-02
    x[2,2]    findWorstP[2,3]  8.6606494920174165e-02
    x[2,2]    findWorstP[2,4]  8.6606494920174165e-02
    x[2,2]    findWorstP[2,5]  8.6606494920174165e-02
    x[2,2]    findWorstP[3,2]  -1.2118644067796612e-01
    x[2,2]    findWorstP[4,2]  -2.6171801299156361e-02
    x[2,2]    findWorstP[5,2]  -1.1999492889893719e-01
    x[2,3]    allocateEach[3]  1
    x[2,3]    findWorstP[1,2]  -1.5254237288135594e-01
    x[2,3]    findWorstP[2,1]  1.4466164731494921e-01
    x[2,3]    findWorstP[2,3]  1.4466164731494921e-01
    x[2,3]    findWorstP[2,4]  1.4466164731494921e-01
    x[2,3]    findWorstP[2,5]  1.4466164731494921e-01
    x[2,3]    findWorstP[3,2]  -2.0396391470749042e-01
    x[2,3]    findWorstP[4,2]  -1.1164119565510365e-01
    x[2,3]    findWorstP[5,2]  -1.9230037821962095e-01
    x[2,4]    allocateEach[4]  1
    x[2,4]    findWorstP[1,2]  -1.7427472184672976e-01
    x[2,4]    findWorstP[2,1]  0.0131077648766328
    x[2,4]    findWorstP[2,3]  0.0131077648766328
    x[2,4]    findWorstP[2,4]  0.0131077648766328
    x[2,4]    findWorstP[2,5]  0.0131077648766328
    x[2,4]    findWorstP[3,2]  -1.8644067796610173e-01
    x[2,4]    findWorstP[4,2]  -8.1372469744750819e-02
    x[2,4]    findWorstP[5,2]  -1.2377712510828916e-01
    x[2,5]    allocateEach[5]  1
    x[2,5]    findWorstP[1,2]  -1.7758136633045649e-01
    x[2,5]    findWorstP[2,1]  1.2722242380261248e-02
    x[2,5]    findWorstP[2,3]  1.2722242380261248e-02
    x[2,5]    findWorstP[2,4]  1.2722242380261248e-02
    x[2,5]    findWorstP[2,5]  1.2722242380261248e-02
    x[2,5]    findWorstP[3,2]  -8.2449425915800983e-02
    x[2,5]    findWorstP[4,2]  -2.3355165628958793e-01
    x[2,5]    findWorstP[5,2]  -6.6431423922919272e-02
    x[2,6]    allocateEach[6]  1
    x[2,6]    findWorstP[1,2]  -2.9531038785484038e-02
    x[2,6]    findWorstP[2,1]  2.1689042089985486e-01
    x[2,6]    findWorstP[2,3]  2.1689042089985486e-01
    x[2,6]    findWorstP[2,4]  2.1689042089985486e-01
    x[2,6]    findWorstP[2,5]  2.1689042089985486e-01
    x[2,6]    findWorstP[3,2]  -1.0079278294149810e-01
    x[2,6]    findWorstP[4,2]  -1.1350098380097572e-01
    x[2,6]    findWorstP[5,2]  -1.7395989604242823e-01
    x[2,7]    allocateEach[7]  1
    x[2,7]    findWorstP[1,2]  -1.9428096079858587e-01
    x[2,7]    findWorstP[2,1]  2.2641509433962262e-01
    x[2,7]    findWorstP[2,3]  2.2641509433962262e-01
    x[2,7]    findWorstP[2,4]  2.2641509433962262e-01
    x[2,7]    findWorstP[2,5]  2.2641509433962262e-01
    x[2,7]    findWorstP[3,2]  -4.0978676872607984e-02
    x[2,7]    findWorstP[4,2]  -1.1864909301636076e-01
    x[2,7]    findWorstP[5,2]  -2.0233693240644879e-01
    x[2,8]    allocateEach[8]  1
    x[2,8]    findWorstP[1,2]  -1.0113340958718936e-01
    x[2,8]    findWorstP[2,1]  1.3837989840348330e-01
    x[2,8]    findWorstP[2,3]  1.3837989840348330e-01
    x[2,8]    findWorstP[2,4]  1.3837989840348330e-01
    x[2,8]    findWorstP[2,5]  1.3837989840348330e-01
    x[2,8]    findWorstP[3,2]  -1.0008201202843084e-01
    x[2,8]    findWorstP[4,2]  -2.3023638176868549e-01
    x[2,8]    findWorstP[5,2]  -1.7431909903437789e-02
    x[3,1]    allocateEach[1]  1
    x[3,1]    findWorstP[1,3]  -1.1527503379432257e-01
    x[3,1]    findWorstP[2,3]  -1.4987753991291727e-01
    x[3,1]    findWorstP[3,1]  1.5043739748496446e-01
    x[3,1]    findWorstP[3,2]  1.5043739748496446e-01
    x[3,1]    findWorstP[3,4]  1.5043739748496446e-01
    x[3,1]    findWorstP[3,5]  1.5043739748496446e-01
    x[3,1]    findWorstP[4,3]  -7.1399692730654177e-02
    x[3,1]    findWorstP[5,3]  -9.3202611617047362e-02
    x[3,2]    allocateEach[2]  1
    x[3,2]    findWorstP[1,3]  -4.4982842882395763e-02
    x[3,2]    findWorstP[2,3]  -8.6606494920174165e-02
    x[3,2]    findWorstP[3,1]  1.2118644067796612e-01
    x[3,2]    findWorstP[3,2]  1.2118644067796612e-01
    x[3,2]    findWorstP[3,4]  1.2118644067796612e-01
    x[3,2]    findWorstP[3,5]  1.2118644067796612e-01
    x[3,2]    findWorstP[4,3]  -2.6171801299156361e-02
    x[3,2]    findWorstP[5,3]  -1.1999492889893719e-01
    x[3,3]    allocateEach[3]  1
    x[3,3]    findWorstP[1,3]  -1.5254237288135594e-01
    x[3,3]    findWorstP[2,3]  -1.4466164731494921e-01
    x[3,3]    findWorstP[3,1]  2.0396391470749042e-01
    x[3,3]    findWorstP[3,2]  2.0396391470749042e-01
    x[3,3]    findWorstP[3,4]  2.0396391470749042e-01
    x[3,3]    findWorstP[3,5]  2.0396391470749042e-01
    x[3,3]    findWorstP[4,3]  -1.1164119565510365e-01
    x[3,3]    findWorstP[5,3]  -1.9230037821962095e-01
    x[3,4]    allocateEach[4]  1
    x[3,4]    findWorstP[1,3]  -1.7427472184672976e-01
    x[3,4]    findWorstP[2,3]  -0.0131077648766328
    x[3,4]    findWorstP[3,1]  1.8644067796610173e-01
    x[3,4]    findWorstP[3,2]  1.8644067796610173e-01
    x[3,4]    findWorstP[3,4]  1.8644067796610173e-01
    x[3,4]    findWorstP[3,5]  1.8644067796610173e-01
    x[3,4]    findWorstP[4,3]  -8.1372469744750819e-02
    x[3,4]    findWorstP[5,3]  -1.2377712510828916e-01
    x[3,5]    allocateEach[5]  1
    x[3,5]    findWorstP[1,3]  -1.7758136633045649e-01
    x[3,5]    findWorstP[2,3]  -1.2722242380261248e-02
    x[3,5]    findWorstP[3,1]  8.2449425915800983e-02
    x[3,5]    findWorstP[3,2]  8.2449425915800983e-02
    x[3,5]    findWorstP[3,4]  8.2449425915800983e-02
    x[3,5]    findWorstP[3,5]  8.2449425915800983e-02
    x[3,5]    findWorstP[4,3]  -2.3355165628958793e-01
    x[3,5]    findWorstP[5,3]  -6.6431423922919272e-02
    x[3,6]    allocateEach[6]  1
    x[3,6]    findWorstP[1,3]  -2.9531038785484038e-02
    x[3,6]    findWorstP[2,3]  -2.1689042089985486e-01
    x[3,6]    findWorstP[3,1]  1.0079278294149810e-01
    x[3,6]    findWorstP[3,2]  1.0079278294149810e-01
    x[3,6]    findWorstP[3,4]  1.0079278294149810e-01
    x[3,6]    findWorstP[3,5]  1.0079278294149810e-01
    x[3,6]    findWorstP[4,3]  -1.1350098380097572e-01
    x[3,6]    findWorstP[5,3]  -1.7395989604242823e-01
    x[3,7]    allocateEach[7]  1
    x[3,7]    findWorstP[1,3]  -1.9428096079858587e-01
    x[3,7]    findWorstP[2,3]  -2.2641509433962262e-01
    x[3,7]    findWorstP[3,1]  4.0978676872607984e-02
    x[3,7]    findWorstP[3,2]  4.0978676872607984e-02
    x[3,7]    findWorstP[3,4]  4.0978676872607984e-02
    x[3,7]    findWorstP[3,5]  4.0978676872607984e-02
    x[3,7]    findWorstP[4,3]  -1.1864909301636076e-01
    x[3,7]    findWorstP[5,3]  -2.0233693240644879e-01
    x[3,8]    allocateEach[8]  1
    x[3,8]    findWorstP[1,3]  -1.0113340958718936e-01
    x[3,8]    findWorstP[2,3]  -1.3837989840348330e-01
    x[3,8]    findWorstP[3,1]  1.0008201202843084e-01
    x[3,8]    findWorstP[3,2]  1.0008201202843084e-01
    x[3,8]    findWorstP[3,4]  1.0008201202843084e-01
    x[3,8]    findWorstP[3,5]  1.0008201202843084e-01
    x[3,8]    findWorstP[4,3]  -2.3023638176868549e-01
    x[3,8]    findWorstP[5,3]  -1.7431909903437789e-02
    x[4,1]    allocateEach[1]  1
    x[4,1]    findWorstP[1,4]  -1.1527503379432257e-01
    x[4,1]    findWorstP[2,4]  -1.4987753991291727e-01
    x[4,1]    findWorstP[3,4]  -1.5043739748496446e-01
    x[4,1]    findWorstP[4,1]  7.1399692730654177e-02
    x[4,1]    findWorstP[4,2]  7.1399692730654177e-02
    x[4,1]    findWorstP[4,3]  7.1399692730654177e-02
    x[4,1]    findWorstP[4,5]  7.1399692730654177e-02
    x[4,1]    findWorstP[5,4]  -9.3202611617047362e-02
    x[4,2]    allocateEach[2]  1
    x[4,2]    findWorstP[1,4]  -4.4982842882395763e-02
    x[4,2]    findWorstP[2,4]  -8.6606494920174165e-02
    x[4,2]    findWorstP[3,4]  -1.2118644067796612e-01
    x[4,2]    findWorstP[4,1]  2.6171801299156361e-02
    x[4,2]    findWorstP[4,2]  2.6171801299156361e-02
    x[4,2]    findWorstP[4,3]  2.6171801299156361e-02
    x[4,2]    findWorstP[4,5]  2.6171801299156361e-02
    x[4,2]    findWorstP[5,4]  -1.1999492889893719e-01
    x[4,3]    allocateEach[3]  1
    x[4,3]    findWorstP[1,4]  -1.5254237288135594e-01
    x[4,3]    findWorstP[2,4]  -1.4466164731494921e-01
    x[4,3]    findWorstP[3,4]  -2.0396391470749042e-01
    x[4,3]    findWorstP[4,1]  1.1164119565510365e-01
    x[4,3]    findWorstP[4,2]  1.1164119565510365e-01
    x[4,3]    findWorstP[4,3]  1.1164119565510365e-01
    x[4,3]    findWorstP[4,5]  1.1164119565510365e-01
    x[4,3]    findWorstP[5,4]  -1.9230037821962095e-01
    x[4,4]    allocateEach[4]  1
    x[4,4]    findWorstP[1,4]  -1.7427472184672976e-01
    x[4,4]    findWorstP[2,4]  -0.0131077648766328
    x[4,4]    findWorstP[3,4]  -1.8644067796610173e-01
    x[4,4]    findWorstP[4,1]  8.1372469744750819e-02
    x[4,4]    findWorstP[4,2]  8.1372469744750819e-02
    x[4,4]    findWorstP[4,3]  8.1372469744750819e-02
    x[4,4]    findWorstP[4,5]  8.1372469744750819e-02
    x[4,4]    findWorstP[5,4]  -1.2377712510828916e-01
    x[4,5]    allocateEach[5]  1
    x[4,5]    findWorstP[1,4]  -1.7758136633045649e-01
    x[4,5]    findWorstP[2,4]  -1.2722242380261248e-02
    x[4,5]    findWorstP[3,4]  -8.2449425915800983e-02
    x[4,5]    findWorstP[4,1]  2.3355165628958793e-01
    x[4,5]    findWorstP[4,2]  2.3355165628958793e-01
    x[4,5]    findWorstP[4,3]  2.3355165628958793e-01
    x[4,5]    findWorstP[4,5]  2.3355165628958793e-01
    x[4,5]    findWorstP[5,4]  -6.6431423922919272e-02
    x[4,6]    allocateEach[6]  1
    x[4,6]    findWorstP[1,4]  -2.9531038785484038e-02
    x[4,6]    findWorstP[2,4]  -2.1689042089985486e-01
    x[4,6]    findWorstP[3,4]  -1.0079278294149810e-01
    x[4,6]    findWorstP[4,1]  1.1350098380097572e-01
    x[4,6]    findWorstP[4,2]  1.1350098380097572e-01
    x[4,6]    findWorstP[4,3]  1.1350098380097572e-01
    x[4,6]    findWorstP[4,5]  1.1350098380097572e-01
    x[4,6]    findWorstP[5,4]  -1.7395989604242823e-01
    x[4,7]    allocateEach[7]  1
    x[4,7]    findWorstP[1,4]  -1.9428096079858587e-01
    x[4,7]    findWorstP[2,4]  -2.2641509433962262e-01
    x[4,7]    findWorstP[3,4]  -4.0978676872607984e-02
    x[4,7]    findWorstP[4,1]  1.1864909301636076e-01
    x[4,7]    findWorstP[4,2]  1.1864909301636076e-01
    x[4,7]    findWorstP[4,3]  1.1864909301636076e-01
    x[4,7]    findWorstP[4,5]  1.1864909301636076e-01
    x[4,7]    findWorstP[5,4]  -2.0233693240644879e-01
    x[4,8]    allocateEach[8]  1
    x[4,8]    findWorstP[1,4]  -1.0113340958718936e-01
    x[4,8]    findWorstP[2,4]  -1.3837989840348330e-01
    x[4,8]    findWorstP[3,4]  -1.0008201202843084e-01
    x[4,8]    findWorstP[4,1]  2.3023638176868549e-01
    x[4,8]    findWorstP[4,2]  2.3023638176868549e-01
    x[4,8]    findWorstP[4,3]  2.3023638176868549e-01
    x[4,8]    findWorstP[4,5]  2.3023638176868549e-01
    x[4,8]    findWorstP[5,4]  -1.7431909903437789e-02
    x[5,1]    allocateEach[1]  1
    x[5,1]    findWorstP[1,5]  -1.1527503379432257e-01
    x[5,1]    findWorstP[2,5]  -1.4987753991291727e-01
    x[5,1]    findWorstP[3,5]  -1.5043739748496446e-01
    x[5,1]    findWorstP[4,5]  -7.1399692730654177e-02
    x[5,1]    findWorstP[5,1]  9.3202611617047362e-02
    x[5,1]    findWorstP[5,2]  9.3202611617047362e-02
    x[5,1]    findWorstP[5,3]  9.3202611617047362e-02
    x[5,1]    findWorstP[5,4]  9.3202611617047362e-02
    x[5,2]    allocateEach[2]  1
    x[5,2]    findWorstP[1,5]  -4.4982842882395763e-02
    x[5,2]    findWorstP[2,5]  -8.6606494920174165e-02
    x[5,2]    findWorstP[3,5]  -1.2118644067796612e-01
    x[5,2]    findWorstP[4,5]  -2.6171801299156361e-02
    x[5,2]    findWorstP[5,1]  1.1999492889893719e-01
    x[5,2]    findWorstP[5,2]  1.1999492889893719e-01
    x[5,2]    findWorstP[5,3]  1.1999492889893719e-01
    x[5,2]    findWorstP[5,4]  1.1999492889893719e-01
    x[5,3]    allocateEach[3]  1
    x[5,3]    findWorstP[1,5]  -1.5254237288135594e-01
    x[5,3]    findWorstP[2,5]  -1.4466164731494921e-01
    x[5,3]    findWorstP[3,5]  -2.0396391470749042e-01
    x[5,3]    findWorstP[4,5]  -1.1164119565510365e-01
    x[5,3]    findWorstP[5,1]  1.9230037821962095e-01
    x[5,3]    findWorstP[5,2]  1.9230037821962095e-01
    x[5,3]    findWorstP[5,3]  1.9230037821962095e-01
    x[5,3]    findWorstP[5,4]  1.9230037821962095e-01
    x[5,4]    allocateEach[4]  1
    x[5,4]    findWorstP[1,5]  -1.7427472184672976e-01
    x[5,4]    findWorstP[2,5]  -0.0131077648766328
    x[5,4]    findWorstP[3,5]  -1.8644067796610173e-01
    x[5,4]    findWorstP[4,5]  -8.1372469744750819e-02
    x[5,4]    findWorstP[5,1]  1.2377712510828916e-01
    x[5,4]    findWorstP[5,2]  1.2377712510828916e-01
    x[5,4]    findWorstP[5,3]  1.2377712510828916e-01
    x[5,4]    findWorstP[5,4]  1.2377712510828916e-01
    x[5,5]    allocateEach[5]  1
    x[5,5]    findWorstP[1,5]  -1.7758136633045649e-01
    x[5,5]    findWorstP[2,5]  -1.2722242380261248e-02
    x[5,5]    findWorstP[3,5]  -8.2449425915800983e-02
    x[5,5]    findWorstP[4,5]  -2.3355165628958793e-01
    x[5,5]    findWorstP[5,1]  6.6431423922919272e-02
    x[5,5]    findWorstP[5,2]  6.6431423922919272e-02
    x[5,5]    findWorstP[5,3]  6.6431423922919272e-02
    x[5,5]    findWorstP[5,4]  6.6431423922919272e-02
    x[5,6]    allocateEach[6]  1
    x[5,6]    findWorstP[1,5]  -2.9531038785484038e-02
    x[5,6]    findWorstP[2,5]  -2.1689042089985486e-01
    x[5,6]    findWorstP[3,5]  -1.0079278294149810e-01
    x[5,6]    findWorstP[4,5]  -1.1350098380097572e-01
    x[5,6]    findWorstP[5,1]  1.7395989604242823e-01
    x[5,6]    findWorstP[5,2]  1.7395989604242823e-01
    x[5,6]    findWorstP[5,3]  1.7395989604242823e-01
    x[5,6]    findWorstP[5,4]  1.7395989604242823e-01
    x[5,7]    allocateEach[7]  1
    x[5,7]    findWorstP[1,5]  -1.9428096079858587e-01
    x[5,7]    findWorstP[2,5]  -2.2641509433962262e-01
    x[5,7]    findWorstP[3,5]  -4.0978676872607984e-02
    x[5,7]    findWorstP[4,5]  -1.1864909301636076e-01
    x[5,7]    findWorstP[5,1]  2.0233693240644879e-01
    x[5,7]    findWorstP[5,2]  2.0233693240644879e-01
    x[5,7]    findWorstP[5,3]  2.0233693240644879e-01
    x[5,7]    findWorstP[5,4]  2.0233693240644879e-01
    x[5,8]    allocateEach[8]  1
    x[5,8]    findWorstP[1,5]  -1.0113340958718936e-01
    x[5,8]    findWorstP[2,5]  -1.3837989840348330e-01
    x[5,8]    findWorstP[3,5]  -1.0008201202843084e-01
    x[5,8]    findWorstP[4,5]  -2.3023638176868549e-01
    x[5,8]    findWorstP[5,1]  1.7431909903437789e-02
    x[5,8]    findWorstP[5,2]  1.7431909903437789e-02
    x[5,8]    findWorstP[5,3]  1.7431909903437789e-02
    x[5,8]    findWorstP[5,4]  1.7431909903437789e-02
    MARKER    'MARKER'                 'INTEND'
RHS
    RHS1      allocateEach[1]  1
    RHS1      allocateEach[2]  1
    RHS1      allocateEach[3]  1
    RHS1      allocateEach[4]  1
    RHS1      allocateEach[5]  1
    RHS1      allocateEach[6]  1
    RHS1      allocateEach[7]  1
    RHS1      allocateEach[8]  1
    RHS1      allocateAllCash  1
BOUNDS
 UP BND1      z         1
 MI BND1      cashProportion[1]
 UP BND1      cashProportion[1]  1
 MI BND1      cashProportion[2]
 UP BND1      cashProportion[2]  1
 MI BND1      cashProportion[3]
 UP BND1      cashProportion[3]  1
 MI BND1      cashProportion[4]
 UP BND1      cashProportion[4]  1
 MI BND1      cashProportion[5]
 UP BND1      cashProportion[5]  1
 BV BND1      x[1,1]  
 BV BND1      x[1,2]  
 BV BND1      x[1,3]  
 BV BND1      x[1,4]  
 BV BND1      x[1,5]  
 BV BND1      x[1,6]  
 BV BND1      x[1,7]  
 BV BND1      x[1,8]  
 BV BND1      x[2,1]  
 BV BND1      x[2,2]  
 BV BND1      x[2,3]  
 BV BND1      x[2,4]  
 BV BND1      x[2,5]  
 BV BND1      x[2,6]  
 BV BND1      x[2,7]  
 BV BND1      x[2,8]  
 BV BND1      x[3,1]  
 BV BND1      x[3,2]  
 BV BND1      x[3,3]  
 BV BND1      x[3,4]  
 BV BND1      x[3,5]  
 BV BND1      x[3,6]  
 BV BND1      x[3,7]  
 BV BND1      x[3,8]  
 BV BND1      x[4,1]  
 BV BND1      x[4,2]  
 BV BND1      x[4,3]  
 BV BND1      x[4,4]  
 BV BND1      x[4,5]  
 BV BND1      x[4,6]  
 BV BND1      x[4,7]  
 BV BND1      x[4,8]  
 BV BND1      x[5,1]  
 BV BND1      x[5,2]  
 BV BND1      x[5,3]  
 BV BND1      x[5,4]  
 BV BND1      x[5,5]  
 BV BND1      x[5,6]  
 BV BND1      x[5,7]  
 BV BND1      x[5,8]  
ENDATA
